 proc title ; proc chmatrix occasions= 12 groups= 1 etype= Live Nodes= 101 ICMeans NoHist hist= 25
 ; time interval 1 1 1 1 1 1 1 1 1 1 1 ;
glabel(1)=Group 1;
 000000000001 20;
 000000000010 28;
 000000000100 15;
 000000000110 1;
 000000010000 3;
 000001000000 30;
 000001000010 1;
 000001010000 3;
 000001010010 1;
 000010000000 13;
 000010010000 1;
 000011000000 1;
 000100000000 7;
 001000000000 13;
 001000010000 1;
 010000000000 13;
 011000000000 11;
 011000001000 1;
 100000000000 23;
 100000010000 1;
 100000011000 1;
 100010000000 2;
 101000000000 9;
 101000001000 1;
 101000011000 1;
proc estimate link=Logit NOLOOP varest=2ndPart    ;
model={ model_AO_jul_aug_sep };
group=1 Phi    rows=11 cols=11 Triang ;
1 2 3 4 5 6 7 8 9 10 11 ;
2 3 4 5 6 7 8 9 10 11 ;
3 4 5 6 7 8 9 10 11 ;
4 5 6 7 8 9 10 11 ;
5 6 7 8 9 10 11 ;
6 7 8 9 10 11 ;
7 8 9 10 11 ;
8 9 10 11 ;
9 10 11 ;
10 11 ;
11 ;
group=1 p    rows=11 cols=11 Triang ;
12 13 14 15 16 17 18 19 20 21 22 ;
13 14 15 16 17 18 19 20 21 22 ;
14 15 16 17 18 19 20 21 22 ;
15 16 17 18 19 20 21 22 ;
16 17 18 19 20 21 22 ;
17 18 19 20 21 22 ;
18 19 20 21 22 ;
19 20 21 22 ;
20 21 22 ;
21 22 ;
22 ;
design matrix constraints=22 covariates=14;
1 -0.227495288690294 0.05175410637628 0 0 0 0 0 0 0 0 0 0 0;
1 -0.609687373689987 0.371718693636994 0 0 0 0 0 0 0 0 0 0 0;
1 -1.65226578243065 2.72998221579116 0 0 0 0 0 0 0 0 0 0 0;
1 1.2076749896759 1.45847888068869 0 0 0 0 0 0 0 0 0 0 0;
1 0.301160429790008 0.0906976044713022 0 0 0 0 0 0 0 0 0 0 0;
1 1.80999584925592 3.27608497432365 0 0 0 0 0 0 0 0 0 0 0;
1 -1.08374422288462 1.17450154063578 0 0 0 0 0 0 0 0 0 0 0;
1 -0.0922980885543477 0.0085189371507862 0 0 0 0 0 0 0 0 0 0 0;
1 0.194562637375127 0.0378546198623653 0 0 0 0 0 0 0 0 0 0 0;
1 -0.645219971161614 0.416308811185793 0 0 0 0 0 0 0 0 0 0 0;
1 -0.331493134948714 0.109887698518126 0 0 0 0 0 0 0 0 0 0 0;
0 0 0 1 0 0 0 0 0 0 0 0 0 0;
0 0 0 1 1 0 0 0 0 0 0 0 0 0;
0 0 0 1 0 1 0 0 0 0 0 0 0 0;
0 0 0 1 0 0 1 0 0 0 0 0 0 0;
0 0 0 1 0 0 0 1 0 0 0 0 0 0;
0 0 0 1 0 0 0 0 1 0 0 0 0 0;
0 0 0 1 0 0 0 0 0 1 0 0 0 0;
0 0 0 1 0 0 0 0 0 0 1 0 0 0;
0 0 0 1 0 0 0 0 0 0 0 1 0 0;
0 0 0 1 0 0 0 0 0 0 0 0 1 0;
0 0 0 1 0 0 0 0 0 0 0 0 0 1;
blabel(1)=Phi:(Intercept);
blabel(2)=Phi:AO_jul_aug_sep;
blabel(3)=Phi:AO_jul_aug_sep2;
blabel(4)=p:(Intercept);
blabel(5)=p:factor(time)2015;
blabel(6)=p:factor(time)2016;
blabel(7)=p:factor(time)2017;
blabel(8)=p:factor(time)2018;
blabel(9)=p:factor(time)2019;
blabel(10)=p:factor(time)2020;
blabel(11)=p:factor(time)2021;
blabel(12)=p:factor(time)2022;
blabel(13)=p:factor(time)2023;
blabel(14)=p:factor(time)2024;
rlabel(1)=Phi g1 c2013 a0 t2013;
rlabel(2)=Phi g1 c2013 a1 t2014;
rlabel(3)=Phi g1 c2013 a2 t2015;
rlabel(4)=Phi g1 c2013 a3 t2016;
rlabel(5)=Phi g1 c2013 a4 t2017;
rlabel(6)=Phi g1 c2013 a5 t2018;
rlabel(7)=Phi g1 c2013 a6 t2019;
rlabel(8)=Phi g1 c2013 a7 t2020;
rlabel(9)=Phi g1 c2013 a8 t2021;
rlabel(10)=Phi g1 c2013 a9 t2022;
rlabel(11)=Phi g1 c2013 a10 t2023;
rlabel(12)=p g1 c2013 a1 t2014;
rlabel(13)=p g1 c2013 a2 t2015;
rlabel(14)=p g1 c2013 a3 t2016;
rlabel(15)=p g1 c2013 a4 t2017;
rlabel(16)=p g1 c2013 a5 t2018;
rlabel(17)=p g1 c2013 a6 t2019;
rlabel(18)=p g1 c2013 a7 t2020;
rlabel(19)=p g1 c2013 a8 t2021;
rlabel(20)=p g1 c2013 a9 t2022;
rlabel(21)=p g1 c2013 a10 t2023;
rlabel(22)=p g1 c2013 a11 t2024;
proc stop;
