 proc title ; proc chmatrix occasions= 12 groups= 1 etype= Live Nodes= 101 ICMeans NoHist hist= 25
 ; time interval 1 1 1 1 1 1 1 1 1 1 1 ;
glabel(1)=Group 1;
 000000000001 20;
 000000000010 28;
 000000000100 15;
 000000000110 1;
 000000010000 3;
 000001000000 30;
 000001000010 1;
 000001010000 3;
 000001010010 1;
 000010000000 13;
 000010010000 1;
 000011000000 1;
 000100000000 7;
 001000000000 13;
 001000010000 1;
 010000000000 13;
 011000000000 11;
 011000001000 1;
 100000000000 23;
 100000010000 1;
 100000011000 1;
 100010000000 2;
 101000000000 9;
 101000001000 1;
 101000011000 1;
proc estimate link=Logit NOLOOP varest=2ndPart    ;
model={ model7 };
group=1 Phi    rows=11 cols=11 Triang ;
1 1 1 1 1 1 1 1 1 1 1 ;
1 1 1 1 1 1 1 1 1 1 ;
1 1 1 1 1 1 1 1 1 ;
1 1 1 1 1 1 1 1 ;
1 1 1 1 1 1 1 ;
1 1 1 1 1 1 ;
1 1 1 1 1 ;
1 1 1 1 ;
1 1 1 ;
1 1 ;
1 ;
group=1 p    rows=11 cols=11 Triang ;
2 2 2 2 2 2 3 3 3 3 3 ;
2 2 2 2 2 3 3 3 3 3 ;
2 2 2 2 3 3 3 3 3 ;
2 2 2 3 3 3 3 3 ;
2 2 3 3 3 3 3 ;
2 3 3 3 3 3 ;
3 3 3 3 3 ;
3 3 3 3 ;
3 3 3 ;
3 3 ;
3 ;
design matrix constraints=3 covariates=3;
1 0 0;
0 1 1;
0 1 0;
blabel(1)=Phi:(Intercept);
blabel(2)=p:(Intercept);
blabel(3)=p:recap_groupB;
rlabel(1)=Phi g1 c2013 a0 t2013;
rlabel(2)=p g1 c2013 a1 t2014;
rlabel(3)=p g1 c2013 a7 t2020;
proc stop;
