 proc title ; proc chmatrix occasions= 15 groups= 1 etype= Live Nodes= 101 ICMeans NoHist hist= 26
 ; time interval 1 1 1 1 1 1 1 1 1 1 1 1 1 1 ;
glabel(1)=Group 1;
 000000000000001 20;
 000000000000010 29;
 000000000000100 15;
 000000000000110 1;
 000000000001000 3;
 000000000010000 9;
 000000001000000 30;
 000000001000010 1;
 000000001010000 3;
 000000001010010 1;
 000000010000000 15;
 000000010010000 1;
 000000011000000 1;
 000000100000000 7;
 000001000000000 15;
 000001000010000 1;
 000010000000000 13;
 000011000000000 11;
 000011000001000 1;
 000100000000000 23;
 000100000010000 1;
 000100000011000 1;
 000100010000000 2;
 000101000000000 9;
 000101000001000 1;
 000101000011000 1;
proc estimate link=Logit NOLOOP varest=2ndPart    ;
model={ model_enso_py_pc };
group=1 Phi    rows=14 cols=14 Triang ;
1 2 3 4 5 6 7 8 9 10 11 12 13 14 ;
2 3 4 5 6 7 8 9 10 11 12 13 14 ;
3 4 5 6 7 8 9 10 11 12 13 14 ;
4 5 6 7 8 9 10 11 12 13 14 ;
5 6 7 8 9 10 11 12 13 14 ;
6 7 8 9 10 11 12 13 14 ;
7 8 9 10 11 12 13 14 ;
8 9 10 11 12 13 14 ;
9 10 11 12 13 14 ;
10 11 12 13 14 ;
11 12 13 14 ;
12 13 14 ;
13 14 ;
14 ;
group=1 p    rows=14 cols=14 Triang ;
15 16 17 18 19 20 21 22 23 24 25 26 27 28 ;
16 17 18 19 20 21 22 23 24 25 26 27 28 ;
17 18 19 20 21 22 23 24 25 26 27 28 ;
18 19 20 21 22 23 24 25 26 27 28 ;
19 20 21 22 23 24 25 26 27 28 ;
20 21 22 23 24 25 26 27 28 ;
21 22 23 24 25 26 27 28 ;
22 23 24 25 26 27 28 ;
23 24 25 26 27 28 ;
24 25 26 27 28 ;
25 26 27 28 ;
26 27 28 ;
27 28 ;
28 ;
design matrix constraints=28 covariates=17;
1 -0.719987970576933 0.51838267777549 0 0 0 0 0 0 0 0 0 0 0 0 0 0;
1 1.36249610870068 1.85639564622451 0 0 0 0 0 0 0 0 0 0 0 0 0 0;
1 0.818253652614078 0.66953904001628 0 0 0 0 0 0 0 0 0 0 0 0 0 0;
1 -0.131021754658838 0.0171667001938808 0 0 0 0 0 0 0 0 0 0 0 0 0 0;
1 0.460463573962171 0.212026702946015 0 0 0 0 0 0 0 0 0 0 0 0 0 0;
1 -0.404402539053599 0.163541413592998 0 0 0 0 0 0 0 0 0 0 0 0 0 0;
1 -2.1738202995108 4.72549469456521 0 0 0 0 0 0 0 0 0 0 0 0 0 0;
1 0.408182476021938 0.1666129337314 0 0 0 0 0 0 0 0 0 0 0 0 0 0;
1 0.0403159465583709 0.00162537554689742 0 0 0 0 0 0 0 0 0 0 0 0 0 0;
1 -0.354640553816281 0.125769922411118 0 0 0 0 0 0 0 0 0 0 0 0 0 0;
1 -0.590854916488297 0.349109532338392 0 0 0 0 0 0 0 0 0 0 0 0 0 0;
1 0.815734539911163 0.665422839604077 0 0 0 0 0 0 0 0 0 0 0 0 0 0;
1 0.728806132951101 0.531158379427138 0 0 0 0 0 0 0 0 0 0 0 0 0 0;
1 1.27808681444354 1.63350590525443 0 0 0 0 0 0 0 0 0 0 0 0 0 0;
0 0 0 1 0 0 0 0 0 0 0 0 0 0 0 0 0;
0 0 0 1 1 0 0 0 0 0 0 0 0 0 0 0 0;
0 0 0 1 0 1 0 0 0 0 0 0 0 0 0 0 0;
0 0 0 1 0 0 1 0 0 0 0 0 0 0 0 0 0;
0 0 0 1 0 0 0 1 0 0 0 0 0 0 0 0 0;
0 0 0 1 0 0 0 0 1 0 0 0 0 0 0 0 0;
0 0 0 1 0 0 0 0 0 1 0 0 0 0 0 0 0;
0 0 0 1 0 0 0 0 0 0 1 0 0 0 0 0 0;
0 0 0 1 0 0 0 0 0 0 0 1 0 0 0 0 0;
0 0 0 1 0 0 0 0 0 0 0 0 1 0 0 0 0;
0 0 0 1 0 0 0 0 0 0 0 0 0 1 0 0 0;
0 0 0 1 0 0 0 0 0 0 0 0 0 0 1 0 0;
0 0 0 1 0 0 0 0 0 0 0 0 0 0 0 1 0;
0 0 0 1 0 0 0 0 0 0 0 0 0 0 0 0 1;
blabel(1)=Phi:(Intercept);
blabel(2)=Phi:enso_py_pc;
blabel(3)=Phi:enso_py_pc2;
blabel(4)=p:(Intercept);
blabel(5)=p:factor(time)2012;
blabel(6)=p:factor(time)2013;
blabel(7)=p:factor(time)2014;
blabel(8)=p:factor(time)2015;
blabel(9)=p:factor(time)2016;
blabel(10)=p:factor(time)2017;
blabel(11)=p:factor(time)2018;
blabel(12)=p:factor(time)2019;
blabel(13)=p:factor(time)2020;
blabel(14)=p:factor(time)2021;
blabel(15)=p:factor(time)2022;
blabel(16)=p:factor(time)2023;
blabel(17)=p:factor(time)2024;
rlabel(1)=Phi g1 c2010 a0 t2010;
rlabel(2)=Phi g1 c2010 a1 t2011;
rlabel(3)=Phi g1 c2010 a2 t2012;
rlabel(4)=Phi g1 c2010 a3 t2013;
rlabel(5)=Phi g1 c2010 a4 t2014;
rlabel(6)=Phi g1 c2010 a5 t2015;
rlabel(7)=Phi g1 c2010 a6 t2016;
rlabel(8)=Phi g1 c2010 a7 t2017;
rlabel(9)=Phi g1 c2010 a8 t2018;
rlabel(10)=Phi g1 c2010 a9 t2019;
rlabel(11)=Phi g1 c2010 a10 t2020;
rlabel(12)=Phi g1 c2010 a11 t2021;
rlabel(13)=Phi g1 c2010 a12 t2022;
rlabel(14)=Phi g1 c2010 a13 t2023;
rlabel(15)=p g1 c2010 a1 t2011;
rlabel(16)=p g1 c2010 a2 t2012;
rlabel(17)=p g1 c2010 a3 t2013;
rlabel(18)=p g1 c2010 a4 t2014;
rlabel(19)=p g1 c2010 a5 t2015;
rlabel(20)=p g1 c2010 a6 t2016;
rlabel(21)=p g1 c2010 a7 t2017;
rlabel(22)=p g1 c2010 a8 t2018;
rlabel(23)=p g1 c2010 a9 t2019;
rlabel(24)=p g1 c2010 a10 t2020;
rlabel(25)=p g1 c2010 a11 t2021;
rlabel(26)=p g1 c2010 a12 t2022;
rlabel(27)=p g1 c2010 a13 t2023;
rlabel(28)=p g1 c2010 a14 t2024;
proc stop;
