 proc title ; proc chmatrix occasions= 15 groups= 1 etype= Live Nodes= 101 ICMeans NoHist hist= 26
 ; time interval 1 1 1 1 1 1 1 1 1 1 1 1 1 1 ;
glabel(1)=Group 1;
 000000000000001 20;
 000000000000010 29;
 000000000000100 15;
 000000000000110 1;
 000000000001000 3;
 000000000010000 9;
 000000001000000 30;
 000000001000010 1;
 000000001010000 3;
 000000001010010 1;
 000000010000000 15;
 000000010010000 1;
 000000011000000 1;
 000000100000000 7;
 000001000000000 15;
 000001000010000 1;
 000010000000000 13;
 000011000000000 11;
 000011000001000 1;
 000100000000000 23;
 000100000010000 1;
 000100000011000 1;
 000100010000000 2;
 000101000000000 9;
 000101000001000 1;
 000101000011000 1;
proc estimate link=Logit NOLOOP varest=2ndPart    ;
model={ model_temp_prev_may_jun_jul };
group=1 Phi    rows=14 cols=14 Triang ;
1 2 3 4 5 6 7 8 9 10 11 12 13 14 ;
2 3 4 5 6 7 8 9 10 11 12 13 14 ;
3 4 5 6 7 8 9 10 11 12 13 14 ;
4 5 6 7 8 9 10 11 12 13 14 ;
5 6 7 8 9 10 11 12 13 14 ;
6 7 8 9 10 11 12 13 14 ;
7 8 9 10 11 12 13 14 ;
8 9 10 11 12 13 14 ;
9 10 11 12 13 14 ;
10 11 12 13 14 ;
11 12 13 14 ;
12 13 14 ;
13 14 ;
14 ;
group=1 p    rows=14 cols=14 Triang ;
15 16 17 18 19 20 21 22 23 24 25 26 27 28 ;
16 17 18 19 20 21 22 23 24 25 26 27 28 ;
17 18 19 20 21 22 23 24 25 26 27 28 ;
18 19 20 21 22 23 24 25 26 27 28 ;
19 20 21 22 23 24 25 26 27 28 ;
20 21 22 23 24 25 26 27 28 ;
21 22 23 24 25 26 27 28 ;
22 23 24 25 26 27 28 ;
23 24 25 26 27 28 ;
24 25 26 27 28 ;
25 26 27 28 ;
26 27 28 ;
27 28 ;
28 ;
design matrix constraints=28 covariates=17;
1 -0.682830673042854 0.466257728048157 0 0 0 0 0 0 0 0 0 0 0 0 0 0;
1 1.29383809062708 1.67401700475752 0 0 0 0 0 0 0 0 0 0 0 0 0 0;
1 -0.57121201829816 0.326283169848258 0 0 0 0 0 0 0 0 0 0 0 0 0 0;
1 -0.749612040268789 0.561918210915937 0 0 0 0 0 0 0 0 0 0 0 0 0 0;
1 -0.459491725338044 0.211132645654133 0 0 0 0 0 0 0 0 0 0 0 0 0 0;
1 0.640765385325601 0.410580279031466 0 0 0 0 0 0 0 0 0 0 0 0 0 0;
1 -0.783394886268169 0.613707547831118 0 0 0 0 0 0 0 0 0 0 0 0 0 0;
1 -0.95083325294455 0.904083874905114 0 0 0 0 0 0 0 0 0 0 0 0 0 0;
1 0.413680970142544 0.171131945058076 0 0 0 0 0 0 0 0 0 0 0 0 0 0;
1 -1.43566421358216 2.06113173416049 0 0 0 0 0 0 0 0 0 0 0 0 0 0;
1 1.37277000773051 1.88449749412442 0 0 0 0 0 0 0 0 0 0 0 0 0 0;
1 -0.800825987693727 0.641322262565634 0 0 0 0 0 0 0 0 0 0 0 0 0 0;
1 -0.0669143440619966 0.00447752944124727 0 0 0 0 0 0 0 0 0 0 0 0 0 0;
1 1.06890759310837 1.14256344260473 0 0 0 0 0 0 0 0 0 0 0 0 0 0;
0 0 0 1 0 0 0 0 0 0 0 0 0 0 0 0 0;
0 0 0 1 1 0 0 0 0 0 0 0 0 0 0 0 0;
0 0 0 1 0 1 0 0 0 0 0 0 0 0 0 0 0;
0 0 0 1 0 0 1 0 0 0 0 0 0 0 0 0 0;
0 0 0 1 0 0 0 1 0 0 0 0 0 0 0 0 0;
0 0 0 1 0 0 0 0 1 0 0 0 0 0 0 0 0;
0 0 0 1 0 0 0 0 0 1 0 0 0 0 0 0 0;
0 0 0 1 0 0 0 0 0 0 1 0 0 0 0 0 0;
0 0 0 1 0 0 0 0 0 0 0 1 0 0 0 0 0;
0 0 0 1 0 0 0 0 0 0 0 0 1 0 0 0 0;
0 0 0 1 0 0 0 0 0 0 0 0 0 1 0 0 0;
0 0 0 1 0 0 0 0 0 0 0 0 0 0 1 0 0;
0 0 0 1 0 0 0 0 0 0 0 0 0 0 0 1 0;
0 0 0 1 0 0 0 0 0 0 0 0 0 0 0 0 1;
blabel(1)=Phi:(Intercept);
blabel(2)=Phi:temp_prev_may_jun_jul;
blabel(3)=Phi:temp_prev_may_jun_jul2;
blabel(4)=p:(Intercept);
blabel(5)=p:factor(time)2012;
blabel(6)=p:factor(time)2013;
blabel(7)=p:factor(time)2014;
blabel(8)=p:factor(time)2015;
blabel(9)=p:factor(time)2016;
blabel(10)=p:factor(time)2017;
blabel(11)=p:factor(time)2018;
blabel(12)=p:factor(time)2019;
blabel(13)=p:factor(time)2020;
blabel(14)=p:factor(time)2021;
blabel(15)=p:factor(time)2022;
blabel(16)=p:factor(time)2023;
blabel(17)=p:factor(time)2024;
rlabel(1)=Phi g1 c2010 a0 t2010;
rlabel(2)=Phi g1 c2010 a1 t2011;
rlabel(3)=Phi g1 c2010 a2 t2012;
rlabel(4)=Phi g1 c2010 a3 t2013;
rlabel(5)=Phi g1 c2010 a4 t2014;
rlabel(6)=Phi g1 c2010 a5 t2015;
rlabel(7)=Phi g1 c2010 a6 t2016;
rlabel(8)=Phi g1 c2010 a7 t2017;
rlabel(9)=Phi g1 c2010 a8 t2018;
rlabel(10)=Phi g1 c2010 a9 t2019;
rlabel(11)=Phi g1 c2010 a10 t2020;
rlabel(12)=Phi g1 c2010 a11 t2021;
rlabel(13)=Phi g1 c2010 a12 t2022;
rlabel(14)=Phi g1 c2010 a13 t2023;
rlabel(15)=p g1 c2010 a1 t2011;
rlabel(16)=p g1 c2010 a2 t2012;
rlabel(17)=p g1 c2010 a3 t2013;
rlabel(18)=p g1 c2010 a4 t2014;
rlabel(19)=p g1 c2010 a5 t2015;
rlabel(20)=p g1 c2010 a6 t2016;
rlabel(21)=p g1 c2010 a7 t2017;
rlabel(22)=p g1 c2010 a8 t2018;
rlabel(23)=p g1 c2010 a9 t2019;
rlabel(24)=p g1 c2010 a10 t2020;
rlabel(25)=p g1 c2010 a11 t2021;
rlabel(26)=p g1 c2010 a12 t2022;
rlabel(27)=p g1 c2010 a13 t2023;
rlabel(28)=p g1 c2010 a14 t2024;
proc stop;
