 proc title ; proc chmatrix occasions= 15 groups= 1 etype= Live Nodes= 101 ICMeans NoHist hist= 26
 ; time interval 1 1 1 1 1 1 1 1 1 1 1 1 1 1 ;
glabel(1)=Group 1;
 000000000000001 20;
 000000000000010 29;
 000000000000100 15;
 000000000000110 1;
 000000000001000 3;
 000000000010000 9;
 000000001000000 30;
 000000001000010 1;
 000000001010000 3;
 000000001010010 1;
 000000010000000 15;
 000000010010000 1;
 000000011000000 1;
 000000100000000 7;
 000001000000000 15;
 000001000010000 1;
 000010000000000 13;
 000011000000000 11;
 000011000001000 1;
 000100000000000 23;
 000100000010000 1;
 000100000011000 1;
 000100010000000 2;
 000101000000000 9;
 000101000001000 1;
 000101000011000 1;
proc estimate link=Logit NOLOOP varest=2ndPart    ;
model={ model3 };
group=1 Phi    rows=14 cols=14 Triang ;
1 1 1 1 1 1 1 1 1 1 1 1 1 1 ;
1 1 1 1 1 1 1 1 1 1 1 1 1 ;
1 1 1 1 1 1 1 1 1 1 1 1 ;
1 1 1 1 1 1 1 1 1 1 1 ;
1 1 1 1 1 1 1 1 1 1 ;
1 1 1 1 1 1 1 1 1 ;
1 1 1 1 1 1 1 1 ;
1 1 1 1 1 1 1 ;
1 1 1 1 1 1 ;
1 1 1 1 1 ;
1 1 1 1 ;
1 1 1 ;
1 1 ;
1 ;
group=1 p    rows=14 cols=14 Triang ;
2 2 2 2 2 2 2 2 2 2 2 2 2 2 ;
2 2 2 2 2 2 2 2 2 2 2 2 2 ;
2 2 2 2 2 2 2 2 2 2 2 2 ;
2 2 2 2 2 2 2 2 2 2 2 ;
2 2 2 2 2 2 2 2 2 2 ;
2 2 2 2 2 2 2 2 2 ;
2 2 2 2 2 2 2 2 ;
2 2 2 2 2 2 2 ;
2 2 2 2 2 2 ;
2 2 2 2 2 ;
2 2 2 2 ;
2 2 2 ;
2 2 ;
2 ;
design matrix constraints=2 covariates=2 identity;
blabel(1)=Phi:(Intercept);
blabel(2)=p:(Intercept);
rlabel(1)=Phi g1 c2010 a0 t2010;
rlabel(2)=p g1 c2010 a1 t2011;
proc stop;
