 proc title ; proc chmatrix occasions= 15 groups= 1 etype= Live Nodes= 101 ICMeans NoHist hist= 26
 ; time interval 1 1 1 1 1 1 1 1 1 1 1 1 1 1 ;
glabel(1)=Group 1;
 000000000000001 20;
 000000000000010 29;
 000000000000100 15;
 000000000000110 1;
 000000000001000 3;
 000000000010000 9;
 000000001000000 30;
 000000001000010 1;
 000000001010000 3;
 000000001010010 1;
 000000010000000 15;
 000000010010000 1;
 000000011000000 1;
 000000100000000 7;
 000001000000000 15;
 000001000010000 1;
 000010000000000 13;
 000011000000000 11;
 000011000001000 1;
 000100000000000 23;
 000100000010000 1;
 000100000011000 1;
 000100010000000 2;
 000101000000000 9;
 000101000001000 1;
 000101000011000 1;
proc estimate link=Logit NOLOOP varest=2ndPart    ;
model={ model6 };
group=1 Phi    rows=14 cols=14 Triang ;
1 2 3 4 5 6 7 8 9 10 11 12 13 14 ;
2 3 4 5 6 7 8 9 10 11 12 13 14 ;
3 4 5 6 7 8 9 10 11 12 13 14 ;
4 5 6 7 8 9 10 11 12 13 14 ;
5 6 7 8 9 10 11 12 13 14 ;
6 7 8 9 10 11 12 13 14 ;
7 8 9 10 11 12 13 14 ;
8 9 10 11 12 13 14 ;
9 10 11 12 13 14 ;
10 11 12 13 14 ;
11 12 13 14 ;
12 13 14 ;
13 14 ;
14 ;
group=1 p    rows=14 cols=14 Triang ;
15 16 17 18 19 20 21 22 23 24 25 26 27 28 ;
16 17 18 19 20 21 22 23 24 25 26 27 28 ;
17 18 19 20 21 22 23 24 25 26 27 28 ;
18 19 20 21 22 23 24 25 26 27 28 ;
19 20 21 22 23 24 25 26 27 28 ;
20 21 22 23 24 25 26 27 28 ;
21 22 23 24 25 26 27 28 ;
22 23 24 25 26 27 28 ;
23 24 25 26 27 28 ;
24 25 26 27 28 ;
25 26 27 28 ;
26 27 28 ;
27 28 ;
28 ;
design matrix constraints=28 covariates=16;
1 2010 0 0 0 0 0 0 0 0 0 0 0 0 0 0;
1 2011 0 0 0 0 0 0 0 0 0 0 0 0 0 0;
1 2012 0 0 0 0 0 0 0 0 0 0 0 0 0 0;
1 2013 0 0 0 0 0 0 0 0 0 0 0 0 0 0;
1 2014 0 0 0 0 0 0 0 0 0 0 0 0 0 0;
1 2015 0 0 0 0 0 0 0 0 0 0 0 0 0 0;
1 2016 0 0 0 0 0 0 0 0 0 0 0 0 0 0;
1 2017 0 0 0 0 0 0 0 0 0 0 0 0 0 0;
1 2018 0 0 0 0 0 0 0 0 0 0 0 0 0 0;
1 2019 0 0 0 0 0 0 0 0 0 0 0 0 0 0;
1 2020 0 0 0 0 0 0 0 0 0 0 0 0 0 0;
1 2021 0 0 0 0 0 0 0 0 0 0 0 0 0 0;
1 2022 0 0 0 0 0 0 0 0 0 0 0 0 0 0;
1 2023 0 0 0 0 0 0 0 0 0 0 0 0 0 0;
0 0 1 0 0 0 0 0 0 0 0 0 0 0 0 0;
0 0 1 1 0 0 0 0 0 0 0 0 0 0 0 0;
0 0 1 0 1 0 0 0 0 0 0 0 0 0 0 0;
0 0 1 0 0 1 0 0 0 0 0 0 0 0 0 0;
0 0 1 0 0 0 1 0 0 0 0 0 0 0 0 0;
0 0 1 0 0 0 0 1 0 0 0 0 0 0 0 0;
0 0 1 0 0 0 0 0 1 0 0 0 0 0 0 0;
0 0 1 0 0 0 0 0 0 1 0 0 0 0 0 0;
0 0 1 0 0 0 0 0 0 0 1 0 0 0 0 0;
0 0 1 0 0 0 0 0 0 0 0 1 0 0 0 0;
0 0 1 0 0 0 0 0 0 0 0 0 1 0 0 0;
0 0 1 0 0 0 0 0 0 0 0 0 0 1 0 0;
0 0 1 0 0 0 0 0 0 0 0 0 0 0 1 0;
0 0 1 0 0 0 0 0 0 0 0 0 0 0 0 1;
blabel(1)=Phi:(Intercept);
blabel(2)=Phi:time;
blabel(3)=p:(Intercept);
blabel(4)=p:factor(time)2012;
blabel(5)=p:factor(time)2013;
blabel(6)=p:factor(time)2014;
blabel(7)=p:factor(time)2015;
blabel(8)=p:factor(time)2016;
blabel(9)=p:factor(time)2017;
blabel(10)=p:factor(time)2018;
blabel(11)=p:factor(time)2019;
blabel(12)=p:factor(time)2020;
blabel(13)=p:factor(time)2021;
blabel(14)=p:factor(time)2022;
blabel(15)=p:factor(time)2023;
blabel(16)=p:factor(time)2024;
rlabel(1)=Phi g1 c2010 a0 t2010;
rlabel(2)=Phi g1 c2010 a1 t2011;
rlabel(3)=Phi g1 c2010 a2 t2012;
rlabel(4)=Phi g1 c2010 a3 t2013;
rlabel(5)=Phi g1 c2010 a4 t2014;
rlabel(6)=Phi g1 c2010 a5 t2015;
rlabel(7)=Phi g1 c2010 a6 t2016;
rlabel(8)=Phi g1 c2010 a7 t2017;
rlabel(9)=Phi g1 c2010 a8 t2018;
rlabel(10)=Phi g1 c2010 a9 t2019;
rlabel(11)=Phi g1 c2010 a10 t2020;
rlabel(12)=Phi g1 c2010 a11 t2021;
rlabel(13)=Phi g1 c2010 a12 t2022;
rlabel(14)=Phi g1 c2010 a13 t2023;
rlabel(15)=p g1 c2010 a1 t2011;
rlabel(16)=p g1 c2010 a2 t2012;
rlabel(17)=p g1 c2010 a3 t2013;
rlabel(18)=p g1 c2010 a4 t2014;
rlabel(19)=p g1 c2010 a5 t2015;
rlabel(20)=p g1 c2010 a6 t2016;
rlabel(21)=p g1 c2010 a7 t2017;
rlabel(22)=p g1 c2010 a8 t2018;
rlabel(23)=p g1 c2010 a9 t2019;
rlabel(24)=p g1 c2010 a10 t2020;
rlabel(25)=p g1 c2010 a11 t2021;
rlabel(26)=p g1 c2010 a12 t2022;
rlabel(27)=p g1 c2010 a13 t2023;
rlabel(28)=p g1 c2010 a14 t2024;
proc stop;
