 proc title ; proc chmatrix occasions= 12 groups= 1 etype= Live Nodes= 101 ICMeans NoHist hist= 25
 ; time interval 1 1 1 1 1 1 1 1 1 1 1 ;
glabel(1)=Group 1;
 000000000001 20;
 000000000010 28;
 000000000100 15;
 000000000110 1;
 000000010000 3;
 000001000000 30;
 000001000010 1;
 000001010000 3;
 000001010010 1;
 000010000000 13;
 000010010000 1;
 000011000000 1;
 000100000000 7;
 001000000000 13;
 001000010000 1;
 010000000000 13;
 011000000000 11;
 011000001000 1;
 100000000000 23;
 100000010000 1;
 100000011000 1;
 100010000000 2;
 101000000000 9;
 101000001000 1;
 101000011000 1;
proc estimate link=Logit NOLOOP varest=2ndPart    ;
model={ model6 };
group=1 Phi    rows=11 cols=11 Triang ;
1 2 3 4 5 6 7 8 9 10 11 ;
2 3 4 5 6 7 8 9 10 11 ;
3 4 5 6 7 8 9 10 11 ;
4 5 6 7 8 9 10 11 ;
5 6 7 8 9 10 11 ;
6 7 8 9 10 11 ;
7 8 9 10 11 ;
8 9 10 11 ;
9 10 11 ;
10 11 ;
11 ;
group=1 p    rows=11 cols=11 Triang ;
12 12 12 12 12 12 13 13 13 13 13 ;
12 12 12 12 12 13 13 13 13 13 ;
12 12 12 12 13 13 13 13 13 ;
12 12 12 13 13 13 13 13 ;
12 12 13 13 13 13 13 ;
12 13 13 13 13 13 ;
13 13 13 13 13 ;
13 13 13 13 ;
13 13 13 ;
13 13 ;
13 ;
design matrix constraints=13 covariates=4;
1 2013 0 0;
1 2014 0 0;
1 2015 0 0;
1 2016 0 0;
1 2017 0 0;
1 2018 0 0;
1 2019 0 0;
1 2020 0 0;
1 2021 0 0;
1 2022 0 0;
1 2023 0 0;
0 0 1 1;
0 0 1 0;
blabel(1)=Phi:(Intercept);
blabel(2)=Phi:time;
blabel(3)=p:(Intercept);
blabel(4)=p:recap_groupB;
rlabel(1)=Phi g1 c2013 a0 t2013;
rlabel(2)=Phi g1 c2013 a1 t2014;
rlabel(3)=Phi g1 c2013 a2 t2015;
rlabel(4)=Phi g1 c2013 a3 t2016;
rlabel(5)=Phi g1 c2013 a4 t2017;
rlabel(6)=Phi g1 c2013 a5 t2018;
rlabel(7)=Phi g1 c2013 a6 t2019;
rlabel(8)=Phi g1 c2013 a7 t2020;
rlabel(9)=Phi g1 c2013 a8 t2021;
rlabel(10)=Phi g1 c2013 a9 t2022;
rlabel(11)=Phi g1 c2013 a10 t2023;
rlabel(12)=p g1 c2013 a1 t2014;
rlabel(13)=p g1 c2013 a7 t2020;
proc stop;
